000 -99 000 000 000 -99 000 -99 -99 -99 -99 -99 000 000 000 000 000 -99 000 000 000 -99 -99 000 -99 -99 000 000 000 -99 -99
-99 -99 000 000 000 -99 000 000 -99 -99 -99 -99 -99 000 000 000 -99 -99 -99 000 000 000 000 000 000 -99 -99 000 000 -99 -99
-99 000 000 000 000 000 000 000 000 -99 -99 -99 -99 -99 000 000 000 000 000 000 000 000 000 000 000 -99 -99 -99 -99 -99 -99
-99 000 000 000 000 000 000 000 000 000 000 -99 -99 -99 -99 000 000 000 000 000 000 000 000 000 000 -99 -99 -99 -99 -99 -99
000 000 000 000 000 000 000 000 000 000 000 000 000 -99 -99 -99 000 000 000 000 000 000 000 000 000 000 -99 -99 -99 -99 -99
000 000 000 000 000 000 000 000 000 000 000 000 000 000 000 000 000 000 000 000 000 000 000 000 000 -99 -99 -99 -99 -99 -99
000 000 000 000 000 000 000 000 000 000 000 000 000 000 000 000 000 000 000 000 000 000 000 000 -99 -99 -99 -99 -99 -99 -99
000 000 000 000 000 000 000 000 000 000 000 000 000 000 000 000 000 000 000 000 000 000 -99 000 000 -99 -99 -99 -99 -99 -99
000 000 000 000 000 000 000 000 000 000 000 000 000 000 -99 000 000 000 000 000 000 -99 -99 000 000 -99 -99 -99 -99 -99 -99
000 000 000 000 000 000 000 000 000 000 000 000 000 000 000 000 000 000 000 000 000 000 -99 -99 000 000 000 000 -99 -99 -99
000 000 000 000 000 000 000 000 000 000 000 000 000 000 000 000 000 000 000 000 000 000 -99 -99 000 000 000 000 -99 000 -99
000 000 000 000 000 000 000 000 000 000 000 000 000 000 000 000 000 000 000 000 000 000 -99 -99 000 -99 000 000 000 000 000
000 000 000 000 000 000 000 000 000 000 000 000 000 000 000 000 000 000 000 000 000 000 004 -99 000 000 000 000 000 -99 000
000 001 001 000 000 000 000 000 000 000 000 000 000 000 000 000 000 000 000 000 000 000 004 -99 000 000 000 000 000 -99 -99
000 000 000 000 000 000 000 000 000 000 000 000 000 000 000 000 000 000 000 000 000 000 -99 000 000 000 000 000 000 -99 -99
000 000 000 000 000 000 000 000 000 001 001 001 001 000 000 000 000 000 000 000 000 000 -99 000 000 000 000 000 000 000 -99
000 000 000 000 000 000 000 000 000 001 001 001 001 000 000 000 000 000 000 000 000 000 000 000 000 000 000 000 000 000 000
001 000 000 000 000 000 000 000 000 000 001 001 001 001 001 000 000 -99 000 000 000 000 -99 -99 000 000 000 000 000 000 000
001 001 001 001 -99 -99 000 000 001 002 002 001 001 001 001 001 000 -99 000 000 000 000 -99 -99 -99 000 000 -99 000 000 000
002 001 001 001 001 001 -99 001 001 002 002 002 001 001 002 001 000 000 000 000 000 000 000 -99 -99 000 000 -99 000 000 000
004 002 001 001 001 001 -99 001 001 003 003 003 003 001 002 001 001 000 000 000 000 001 000 -99 -99 -99 -99 -99 -99 -99 -99
005 004 002 001 001 001 002 001 002 004 004 005 002 001 001 001 001 001 000 000 000 001 001 -99 -99 -99 -99 -99 -99 -99 -99
006 009 005 001 001 001 002 002 002 004 003 005 002 001 001 003 003 001 001 000 000 001 000 -99 -99 -99 -99 -99 -99 -99 004
002 004 005 004 001 001 001 002 003 004 003 003 002 003 004 010 006 002 001 001 001 002 001 -99 -99 -99 -99 -99 -99 004 004
001 002 004 006 002 001 002 002 006 007 004 005 004 007 009 014 006 002 002 002 004 003 004 -99 -99 -99 -99 -99 -99 004 004
000 000 003 009 002 001 002 002 004 005 005 006 005 012 017 020 011 005 005 006 007 004 006 -99 -99 -99 -99 -99 -99 005 006
000 000 001 003 001 001 003 002 005 010 009 007 012 042 069 025 018 012 010 012 014 008 009 -99 -99 -99 -99 -99 -99 005 006
000 000 001 003 003 002 004 006 009 018 016 013 021 078 039 017 008 011 009 010 014 007 011 -99 -99 -99 -99 -99 005 007 011
000 000 001 002 005 002 002 006 016 018 044 028 031 123 054 022 002 003 004 004 007 004 010 005 -99 -99 -99 004 005 010 018
000 001 001 001 001 002 002 002 010 020 069 045 060 126 082 017 003 001 001 002 005 003 006 006 -99 002 002 004 004 011 017
000 001 002 001 002 002 001 003 005 022 064 075 082 116 140 072 004 000 000 000 001 002 005 004 005 002 003 004 004 010 015
000 001 002 002 002 001 001 002 003 011 045 082 080 094 072 037 001 000 000 000 000 003 006 006 005 003 004 006 005 007 017
000 001 001 002 002 001 002 002 004 006 009 032 051 069 100 066 001 000 000 000 001 003 013 012 006 003 008 009 016 035 028
000 000 000 001 001 001 002 004 007 009 020 023 045 051 080 005 000 000 000 000 000 003 012 048 007 003 012 010 039 035 022
000 000 000 000 000 001 002 002 005 008 011 024 069 131 022 001 000 000 000 000 000 002 014 089 078 029 011 011 031 034 021
-99 000 000 000 000 000 000 000 003 009 017 039 096 077 005 001 000 000 000 000 000 001 012 105 152 064 014 018 033 066 035
000 000 000 000 000 000 000 000 002 001 003 003 048 024 002 001 000 -99 000 000 000 000 014 126 149 071 022 015 028 054 066
000 000 000 000 000 000 000 000 000 000 000 001 001 001 000 000 000 000 000 000 000 000 006 028 055 039 016 017 038 075 116
000 000 000 000 000 000 000 000 000 000 000 000 000 000 000 000 000 000 000 000 000 000 000 011 013 030 013 029 069 111 146
000 000 000 000 000 -99 -99 000 -99 -99 000 000 000 000 000 000 000 000 000 -99 -99 000 000 003 008 011 010 039 109 131 216
000 000 000 000 000 -99 -99 -99 -99 -99 000 000 000 000 000 000 000 000 -99 -99 -99 -99 000 002 000 002 003 022 073 134 211
000 000 -99 -99 -99 -99 -99 000 000 000 000 000 000 000 000 000 -99 -99 000 000 -99 -99 000 001 000 000 000 007 013 039 078
000 000 -99 -99 -99 -99 000 000 000 000 000 000 000 000 -99 -99 -99 -99 000 000 -99 000 000 000 000 000 000 004 007 004 005
000 -99 -99 -99 -99 000 000 000 -99 000 000 000 -99 000 000 000 000 000 000 000 000 -99 000 -99 000 000 000 001 001 003 002
-99 -99 -99 -99 -99 -99 -99 -99 -99 -99 000 000 000 000 000 -99 000 000 000 000 000 -99 -99 000 000 000 000 000 001 003 001
000 -99 -99 -99 -99 -99 -99 -99 -99 -99 000 000 000 000 000 000 000 -99 000 000 -99 -99 -99 000 000 000 000 000 -99 -99 000
000 -99 -99 -99 -99 -99 -99 -99 -99 -99 000 000 000 000 -99 -99 -99 -99 -99 000 -99 -99 000 000 -99 000 000 -99 -99 -99 000
-99 -99 -99 -99 -99 -99 -99 -99 -99 -99 -99 -99 -99 000 000 -99 -99 -99 -99 -99 000 -99 000 000 -99 -99 000 -99 000 -99 000
-99 -99 -99 -99 -99 -99 -99 -99 -99 -99 -99 -99 -99 -99 000 -99 -99 -99 -99 -99 -99 -99 000 -99 -99 -99 -99 000 000 -99 000
-99 -99 -99 -99 -99 -99 -99 -99 000 000 -99 -99 -99 -99 -99 -99 -99 -99 -99 -99 -99 -99 -99 -99 -99 -99 -99 000 000 -99 -99
-99 -99 -99 -99 -99 -99 -99 000 000 000 -99 -99 -99 -99 -99 -99 -99 -99 -99 -99 -99 -99 -99 -99 -99 -99 -99 000 000 -99 -99
-99 -99 -99 -99 -99 -99 -99 000 000 -99 -99 -99 -99 -99 -99 -99 -99 -99 -99 -99 -99 -99 -99 -99 -99 -99 -99 -99 -99 -99 -99
-99 -99 -99 -99 -99 -99 -99 -99 -99 -99 -99 -99 -99 -99 -99 -99 -99 000 000 -99 -99 -99 -99 -99 -99 -99 -99 -99 -99 -99 000
-99 -99 -99 -99 -99 -99 -99 -99 -99 -99 -99 -99 -99 -99 -99 -99 000 000 000 -99 -99 -99 -99 -99 -99 -99 -99 -99 -99 000 000
-99 -99 -99 -99 -99 -99 -99 -99 -99 -99 -99 -99 -99 -99 -99 -99 000 000 -99 -99 -99 -99 -99 -99 -99 -99 -99 -99 000 000 001
